<instance format="XCSP3" type="CSP">
  <variables>
    <array id="x" size="[234]"> 0 1 </array>
  </variables>
  <constraints>
    <group>
      <sum>
        <list> %... </list>
        <coeffs> -1 1 1 1 1 1 1 </coeffs>
        <condition> (ge,0) </condition>
      </sum>
      <args> x[66] x[162..167] </args>
      <args> x[17] x[180..185] </args>
      <args> x[52] x[156..161] </args>
      <args> x[138] x[204..209] </args>
      <args> x[136] x[192..197] </args>
      <args> x[45] x[192..197] </args>
      <args> x[118] x[162..167] </args>
      <args> x[129] x[228..233] </args>
      <args> x[140] x[216..221] </args>
      <args> x[36] x[216..221] </args>
      <args> x[30] x[180..185] </args>
      <args> x[6] x[192..197] </args>
      <args> x[62] x[216..221] </args>
      <args> x[73] x[204..209] </args>
      <args> x[92] x[162..167] </args>
      <args> x[127] x[216..221] </args>
      <args> x[133] x[174..179] </args>
      <args> x[76] x[222..227] </args>
      <args> x[78] x[156..161] </args>
      <args> x[96] x[186..191] </args>
      <args> x[109] x[186..191] </args>
      <args> x[43] x[180..185] </args>
      <args> x[47] x[204..209] </args>
      <args> x[51] x[228..233] </args>
      <args> x[63] x[222..227] </args>
      <args> x[86] x[204..209] </args>
      <args> x[116] x[228..233] </args>
      <args> x[70] x[186..191] </args>
      <args> x[112] x[204..209] </args>
      <args> x[65] x[156..161] </args>
      <args> x[57] x[186..191] </args>
      <args> x[3] x[174..179] </args>
      <args> x[32] x[192..197] </args>
      <args> x[102] x[222..227] </args>
      <args> x[155] x[228..233] </args>
      <args> x[48] x[210..215] </args>
      <args> x[10] x[216..221] </args>
      <args> x[139] x[210..215] </args>
      <args> x[34] x[204..209] </args>
      <args> x[2] x[168..173] </args>
      <args> x[131] x[162..167] </args>
      <args> x[71] x[192..197] </args>
      <args> x[31] x[186..191] </args>
      <args> x[151] x[204..209] </args>
      <args> x[98] x[198..203] </args>
      <args> x[56] x[180..185] </args>
      <args> x[54] x[168..173] </args>
      <args> x[124] x[198..203] </args>
      <args> x[75] x[216..221] </args>
      <args> x[83] x[186..191] </args>
      <args> x[77] x[228..233] </args>
      <args> x[74] x[210..215] </args>
      <args> x[141] x[222..227] </args>
      <args> x[68] x[174..179] </args>
      <args> x[108] x[180..185] </args>
      <args> x[19] x[192..197] </args>
      <args> x[49] x[216..221] </args>
      <args> x[64] x[228..233] </args>
      <args> x[79] x[162..167] </args>
      <args> x[149] x[192..197] </args>
      <args> x[113] x[210..215] </args>
      <args> x[24] x[222..227] </args>
      <args> x[50] x[222..227] </args>
      <args> x[14] x[162..167] </args>
      <args> x[20] x[198..203] </args>
      <args> x[128] x[222..227] </args>
      <args> x[111] x[198..203] </args>
      <args> x[120] x[174..179] </args>
      <args> x[144] x[162..167] </args>
      <args> x[40] x[162..167] </args>
      <args> x[134] x[180..185] </args>
      <args> x[9] x[210..215] </args>
      <args> x[85] x[198..203] </args>
      <args> x[29] x[174..179] </args>
      <args> x[115] x[222..227] </args>
      <args> x[11] x[222..227] </args>
      <args> x[21] x[204..209] </args>
      <args> x[110] x[192..197] </args>
      <args> x[39] x[156..161] </args>
      <args> x[153] x[216..221] </args>
      <args> x[42] x[174..179] </args>
      <args> x[147] x[180..185] </args>
      <args> x[91] x[156..161] </args>
      <args> x[44] x[186..191] </args>
      <args> x[125] x[204..209] </args>
      <args> x[84] x[192..197] </args>
      <args> x[26] x[156..161] </args>
      <args> x[37] x[222..227] </args>
      <args> x[23] x[216..221] </args>
      <args> x[59] x[198..203] </args>
      <args> x[89] x[222..227] </args>
      <args> x[104] x[156..161] </args>
      <args> x[15] x[168..173] </args>
      <args> x[67] x[168..173] </args>
      <args> x[123] x[192..197] </args>
      <args> x[107] x[174..179] </args>
      <args> x[95] x[180..185] </args>
      <args> x[88] x[216..221] </args>
      <args> x[101] x[216..221] </args>
      <args> x[0] x[156..161] </args>
      <args> x[142] x[228..233] </args>
      <args> x[60] x[204..209] </args>
      <args> x[38] x[228..233] </args>
      <args> x[150] x[198..203] </args>
      <args> x[46] x[198..203] </args>
      <args> x[106] x[168..173] </args>
      <args> x[53] x[162..167] </args>
      <args> x[27] x[162..167] </args>
      <args> x[154] x[222..227] </args>
      <args> x[80] x[168..173] </args>
      <args> x[94] x[174..179] </args>
      <args> x[137] x[198..203] </args>
      <args> x[35] x[210..215] </args>
      <args> x[121] x[180..185] </args>
      <args> x[119] x[168..173] </args>
      <args> x[99] x[204..209] </args>
      <args> x[69] x[180..185] </args>
      <args> x[126] x[210..215] </args>
      <args> x[132] x[168..173] </args>
      <args> x[82] x[180..185] </args>
      <args> x[100] x[210..215] </args>
      <args> x[117] x[156..161] </args>
      <args> x[114] x[216..221] </args>
      <args> x[152] x[210..215] </args>
      <args> x[16] x[174..179] </args>
      <args> x[5] x[186..191] </args>
      <args> x[25] x[228..233] </args>
      <args> x[12] x[228..233] </args>
      <args> x[4] x[180..185] </args>
      <args> x[90] x[228..233] </args>
      <args> x[61] x[210..215] </args>
      <args> x[97] x[192..197] </args>
      <args> x[33] x[198..203] </args>
      <args> x[55] x[174..179] </args>
      <args> x[143] x[156..161] </args>
      <args> x[28] x[168..173] </args>
      <args> x[103] x[228..233] </args>
      <args> x[1] x[162..167] </args>
      <args> x[87] x[210..215] </args>
      <args> x[148] x[186..191] </args>
      <args> x[22] x[210..215] </args>
      <args> x[81] x[174..179] </args>
      <args> x[146] x[174..179] </args>
      <args> x[41] x[168..173] </args>
      <args> x[105] x[162..167] </args>
      <args> x[7] x[198..203] </args>
      <args> x[135] x[186..191] </args>
      <args> x[8] x[204..209] </args>
      <args> x[13] x[156..161] </args>
      <args> x[145] x[168..173] </args>
      <args> x[122] x[186..191] </args>
      <args> x[130] x[156..161] </args>
      <args> x[18] x[186..191] </args>
      <args> x[93] x[168..173] </args>
      <args> x[72] x[198..203] </args>
      <args> x[58] x[192..197] </args>
    </group>
    <group>
      <sum>
        <list> %... </list>
        <condition> (ge,1) </condition>
      </sum>
      <args> x[13..25] </args>
      <args> x[65..77] </args>
      <args> x[26..38] </args>
      <args> x[130..142] </args>
      <args> x[104..116] </args>
      <args> x[78..90] </args>
      <args> x[39..51] </args>
      <args> x[52..64] </args>
      <args> x[117..129] </args>
      <args> x[91..103] </args>
      <args> x[143..155] </args>
      <args> x[0..12] </args>
    </group>
    <group>
      <sum>
        <list> %... </list>
        <coeffs> -1 -1 -1 -1 -1 -1 -1 -1 -1 -1 -1 -1 </coeffs>
        <condition> (ge,-1) </condition>
      </sum>
      <args> x[0] x[13] x[26] x[39] x[52] x[65] x[78] x[91] x[104] x[117] x[130] x[143] </args>
      <args> x[1] x[14] x[27] x[40] x[53] x[66] x[79] x[92] x[105] x[118] x[131] x[144] </args>
      <args> x[2] x[15] x[28] x[41] x[54] x[67] x[80] x[93] x[106] x[119] x[132] x[145] </args>
      <args> x[3] x[16] x[29] x[42] x[55] x[68] x[81] x[94] x[107] x[120] x[133] x[146] </args>
      <args> x[4] x[17] x[30] x[43] x[56] x[69] x[82] x[95] x[108] x[121] x[134] x[147] </args>
      <args> x[5] x[18] x[31] x[44] x[57] x[70] x[83] x[96] x[109] x[122] x[135] x[148] </args>
      <args> x[6] x[19] x[32] x[45] x[58] x[71] x[84] x[97] x[110] x[123] x[136] x[149] </args>
      <args> x[7] x[20] x[33] x[46] x[59] x[72] x[85] x[98] x[111] x[124] x[137] x[150] </args>
      <args> x[8] x[21] x[34] x[47] x[60] x[73] x[86] x[99] x[112] x[125] x[138] x[151] </args>
      <args> x[9] x[22] x[35] x[48] x[61] x[74] x[87] x[100] x[113] x[126] x[139] x[152] </args>
      <args> x[10] x[23] x[36] x[49] x[62] x[75] x[88] x[101] x[114] x[127] x[140] x[153] </args>
      <args> x[11] x[24] x[37] x[50] x[63] x[76] x[89] x[102] x[115] x[128] x[141] x[154] </args>
      <args> x[12] x[25] x[38] x[51] x[64] x[77] x[90] x[103] x[116] x[129] x[142] x[155] </args>
    </group>
    <group>
      <sum>
        <list> %... </list>
        <coeffs> -1 -1 -1 -1 -1 -1 </coeffs>
        <condition> (ge,-1) </condition>
      </sum>
      <args> x[156] x[162] x[168] x[174] x[180] x[186] </args>
      <args> x[157] x[163] x[169] x[175] x[181] x[187] </args>
      <args> x[158] x[164] x[170] x[176] x[182] x[188] </args>
      <args> x[159] x[165] x[171] x[177] x[183] x[189] </args>
      <args> x[160] x[166] x[172] x[178] x[184] x[190] </args>
      <args> x[161] x[167] x[173] x[179] x[185] x[191] </args>
    </group>
    <group>
      <sum>
        <list> %... </list>
        <coeffs> -1 -1 -1 -1 -1 -1 -1 </coeffs>
        <condition> (ge,-1) </condition>
      </sum>
      <args> x[192] x[198] x[204] x[210] x[216] x[222] x[228] </args>
      <args> x[193] x[199] x[205] x[211] x[217] x[223] x[229] </args>
      <args> x[194] x[200] x[206] x[212] x[218] x[224] x[230] </args>
      <args> x[195] x[201] x[207] x[213] x[219] x[225] x[231] </args>
      <args> x[196] x[202] x[208] x[214] x[220] x[226] x[232] </args>
      <args> x[197] x[203] x[209] x[215] x[221] x[227] x[233] </args>
    </group>
  </constraints>
</instance>

